p edge 200 3980
e 1 4
e 1 11
e 1 12
e 1 35
e 1 36
e 1 38
e 1 40
e 1 50
e 1 51
e 1 60
e 1 64
e 1 65
e 1 68
e 1 73
e 1 75
e 1 80
e 1 83
e 1 84
e 1 85
e 1 86
e 1 88
e 1 90
e 1 102
e 1 112
e 1 113
e 1 114
e 1 123
e 1 143
e 1 146
e 1 175
e 1 176
e 1 178
e 1 181
e 1 182
e 1 189
e 1 190
e 1 192
e 1 194
e 1 200
e 2 13
e 2 28
e 2 32
e 2 34
e 2 39
e 2 50
e 2 58
e 2 59
e 2 61
e 2 72
e 2 73
e 2 74
e 2 79
e 2 80
e 2 85
e 2 90
e 2 95
e 2 97
e 2 98
e 2 101
e 2 127
e 2 133
e 2 134
e 2 136
e 2 141
e 2 143
e 2 144
e 2 148
e 2 150
e 2 155
e 2 164
e 2 171
e 2 175
e 2 188
e 2 191
e 2 196
e 3 4
e 3 13
e 3 23
e 3 29
e 3 38
e 3 39
e 3 40
e 3 41
e 3 50
e 3 56
e 3 57
e 3 62
e 3 63
e 3 65
e 3 76
e 3 81
e 3 82
e 3 85
e 3 88
e 3 89
e 3 90
e 3 91
e 3 93
e 3 95
e 3 98
e 3 99
e 3 106
e 3 109
e 3 111
e 3 114
e 3 121
e 3 123
e 3 124
e 3 130
e 3 134
e 3 136
e 3 137
e 3 140
e 3 149
e 3 161
e 3 171
e 3 173
e 3 177
e 3 181
e 3 182
e 3 190
e 3 194
e 3 199
e 3 200
e 4 5
e 4 7
e 4 10
e 4 12
e 4 19
e 4 23
e 4 24
e 4 35
e 4 37
e 4 39
e 4 42
e 4 45
e 4 46
e 4 60
e 4 67
e 4 81
e 4 87
e 4 91
e 4 96
e 4 99
e 4 107
e 4 115
e 4 116
e 4 117
e 4 121
e 4 124
e 4 133
e 4 136
e 4 147
e 4 156
e 4 157
e 4 163
e 4 164
e 4 168
e 4 169
e 4 171
e 4 183
e 4 186
e 4 189
e 4 190
e 4 194
e 5 6
e 5 19
e 5 20
e 5 38
e 5 45
e 5 47
e 5 49
e 5 51
e 5 57
e 5 61
e 5 64
e 5 66
e 5 71
e 5 77
e 5 83
e 5 86
e 5 90
e 5 96
e 5 97
e 5 107
e 5 109
e 5 115
e 5 116
e 5 119
e 5 120
e 5 135
e 5 150
e 5 156
e 5 157
e 5 158
e 5 163
e 5 167
e 5 171
e 5 180
e 5 182
e 5 183
e 5 185
e 5 191
e 5 197
e 6 11
e 6 12
e 6 17
e 6 21
e 6 28
e 6 39
e 6 44
e 6 46
e 6 47
e 6 49
e 6 59
e 6 61
e 6 77
e 6 78
e 6 93
e 6 94
e 6 102
e 6 104
e 6 112
e 6 120
e 6 129
e 6 148
e 6 153
e 6 155
e 6 181
e 6 182
e 6 183
e 6 191
e 6 193
e 6 195
e 7 13
e 7 20
e 7 25
e 7 32
e 7 40
e 7 44
e 7 46
e 7 53
e 7 56
e 7 61
e 7 62
e 7 65
e 7 66
e 7 68
e 7 72
e 7 79
e 7 81
e 7 92
e 7 95
e 7 101
e 7 102
e 7 104
e 7 119
e 7 125
e 7 128
e 7 135
e 7 139
e 7 143
e 7 151
e 7 152
e 7 159
e 7 165
e 7 171
e 7 173
e 7 180
e 7 182
e 7 185
e 7 187
e 7 194
e 7 197
e 8 12
e 8 14
e 8 16
e 8 23
e 8 29
e 8 33
e 8 42
e 8 52
e 8 54
e 8 55
e 8 56
e 8 61
e 8 64
e 8 72
e 8 77
e 8 82
e 8 83
e 8 85
e 8 88
e 8 90
e 8 103
e 8 106
e 8 110
e 8 111
e 8 121
e 8 128
e 8 131
e 8 138
e 8 139
e 8 145
e 8 147
e 8 148
e 8 150
e 8 158
e 8 166
e 8 169
e 8 175
e 8 182
e 8 185
e 8 195
e 8 196
e 9 10
e 9 18
e 9 28
e 9 30
e 9 31
e 9 32
e 9 36
e 9 39
e 9 47
e 9 72
e 9 75
e 9 82
e 9 83
e 9 94
e 9 96
e 9 102
e 9 105
e 9 107
e 9 115
e 9 117
e 9 124
e 9 125
e 9 130
e 9 132
e 9 138
e 9 172
e 9 176
e 9 186
e 9 195
e 9 196
e 9 198
e 10 17
e 10 24
e 10 29
e 10 35
e 10 42
e 10 76
e 10 79
e 10 83
e 10 84
e 10 94
e 10 97
e 10 99
e 10 117
e 10 120
e 10 123
e 10 124
e 10 125
e 10 127
e 10 132
e 10 140
e 10 141
e 10 142
e 10 146
e 10 151
e 10 152
e 10 159
e 10 160
e 10 163
e 10 166
e 10 168
e 10 170
e 10 175
e 10 183
e 10 188
e 10 189
e 10 193
e 11 17
e 11 18
e 11 29
e 11 35
e 11 36
e 11 41
e 11 49
e 11 53
e 11 56
e 11 58
e 11 60
e 11 66
e 11 67
e 11 74
e 11 76
e 11 83
e 11 87
e 11 92
e 11 96
e 11 103
e 11 107
e 11 109
e 11 121
e 11 127
e 11 132
e 11 133
e 11 137
e 11 144
e 11 148
e 11 156
e 11 161
e 11 162
e 11 167
e 11 169
e 11 189
e 11 193
e 11 196
e 12 22
e 12 26
e 12 35
e 12 40
e 12 41
e 12 47
e 12 50
e 12 55
e 12 56
e 12 57
e 12 68
e 12 71
e 12 72
e 12 76
e 12 85
e 12 95
e 12 96
e 12 97
e 12 104
e 12 105
e 12 109
e 12 110
e 12 125
e 12 129
e 12 131
e 12 140
e 12 141
e 12 143
e 12 147
e 12 149
e 12 154
e 12 157
e 12 161
e 12 163
e 12 167
e 12 170
e 12 177
e 12 181
e 13 19
e 13 25
e 13 27
e 13 36
e 13 47
e 13 54
e 13 70
e 13 73
e 13 74
e 13 76
e 13 80
e 13 84
e 13 87
e 13 93
e 13 95
e 13 110
e 13 115
e 13 120
e 13 134
e 13 135
e 13 145
e 13 147
e 13 148
e 13 154
e 13 155
e 13 156
e 13 168
e 13 174
e 13 183
e 13 186
e 13 191
e 13 194
e 13 198
e 14 15
e 14 23
e 14 29
e 14 30
e 14 31
e 14 39
e 14 43
e 14 44
e 14 45
e 14 47
e 14 51
e 14 52
e 14 56
e 14 67
e 14 71
e 14 78
e 14 102
e 14 105
e 14 112
e 14 119
e 14 126
e 14 129
e 14 132
e 14 145
e 14 146
e 14 156
e 14 157
e 14 169
e 14 176
e 14 179
e 14 184
e 14 190
e 15 21
e 15 22
e 15 35
e 15 38
e 15 46
e 15 50
e 15 56
e 15 57
e 15 65
e 15 67
e 15 68
e 15 83
e 15 86
e 15 89
e 15 91
e 15 96
e 15 100
e 15 107
e 15 111
e 15 112
e 15 125
e 15 131
e 15 133
e 15 136
e 15 140
e 15 145
e 15 148
e 15 149
e 15 150
e 15 151
e 15 157
e 15 158
e 15 162
e 15 169
e 15 171
e 15 172
e 15 192
e 15 196
e 15 199
e 16 30
e 16 31
e 16 32
e 16 35
e 16 37
e 16 46
e 16 48
e 16 49
e 16 57
e 16 59
e 16 61
e 16 64
e 16 68
e 16 72
e 16 78
e 16 80
e 16 83
e 16 84
e 16 86
e 16 88
e 16 89
e 16 93
e 16 94
e 16 101
e 16 103
e 16 109
e 16 116
e 16 122
e 16 135
e 16 146
e 16 148
e 16 149
e 16 154
e 16 161
e 16 170
e 16 178
e 16 186
e 17 19
e 17 26
e 17 27
e 17 29
e 17 39
e 17 40
e 17 42
e 17 47
e 17 50
e 17 54
e 17 55
e 17 56
e 17 60
e 17 67
e 17 70
e 17 72
e 17 89
e 17 90
e 17 91
e 17 92
e 17 96
e 17 103
e 17 104
e 17 116
e 17 118
e 17 119
e 17 133
e 17 134
e 17 135
e 17 140
e 17 159
e 17 161
e 17 164
e 17 171
e 17 174
e 17 175
e 17 186
e 17 197
e 17 200
e 18 25
e 18 28
e 18 29
e 18 31
e 18 32
e 18 36
e 18 39
e 18 42
e 18 44
e 18 46
e 18 50
e 18 53
e 18 56
e 18 60
e 18 70
e 18 71
e 18 73
e 18 74
e 18 75
e 18 81
e 18 84
e 18 87
e 18 91
e 18 94
e 18 96
e 18 102
e 18 108
e 18 110
e 18 120
e 18 125
e 18 126
e 18 131
e 18 135
e 18 140
e 18 143
e 18 144
e 18 145
e 18 149
e 18 152
e 18 155
e 18 156
e 18 157
e 18 159
e 18 163
e 18 169
e 18 182
e 18 193
e 18 195
e 18 197
e 19 22
e 19 27
e 19 28
e 19 36
e 19 47
e 19 48
e 19 77
e 19 80
e 19 82
e 19 83
e 19 86
e 19 88
e 19 90
e 19 100
e 19 105
e 19 106
e 19 119
e 19 142
e 19 146
e 19 156
e 19 157
e 19 161
e 19 162
e 19 171
e 19 172
e 19 173
e 19 176
e 19 177
e 19 190
e 19 197
e 20 23
e 20 29
e 20 40
e 20 42
e 20 49
e 20 50
e 20 60
e 20 67
e 20 70
e 20 72
e 20 73
e 20 74
e 20 78
e 20 84
e 20 86
e 20 88
e 20 92
e 20 93
e 20 99
e 20 104
e 20 109
e 20 119
e 20 121
e 20 134
e 20 142
e 20 146
e 20 150
e 20 167
e 20 180
e 20 181
e 20 185
e 20 200
e 21 26
e 21 29
e 21 31
e 21 39
e 21 47
e 21 48
e 21 50
e 21 58
e 21 64
e 21 70
e 21 81
e 21 82
e 21 86
e 21 90
e 21 93
e 21 96
e 21 100
e 21 102
e 21 111
e 21 116
e 21 119
e 21 120
e 21 125
e 21 133
e 21 135
e 21 139
e 21 143
e 21 144
e 21 169
e 21 176
e 21 179
e 21 194
e 21 197
e 22 24
e 22 33
e 22 34
e 22 35
e 22 36
e 22 41
e 22 45
e 22 52
e 22 58
e 22 60
e 22 61
e 22 62
e 22 63
e 22 67
e 22 71
e 22 83
e 22 86
e 22 87
e 22 92
e 22 97
e 22 103
e 22 105
e 22 108
e 22 109
e 22 116
e 22 118
e 22 139
e 22 153
e 22 163
e 22 164
e 22 165
e 22 166
e 22 179
e 22 189
e 22 193
e 22 196
e 22 200
e 23 28
e 23 35
e 23 37
e 23 40
e 23 44
e 23 46
e 23 50
e 23 52
e 23 54
e 23 63
e 23 64
e 23 65
e 23 78
e 23 82
e 23 90
e 23 111
e 23 112
e 23 115
e 23 117
e 23 122
e 23 125
e 23 139
e 23 142
e 23 143
e 23 162
e 23 170
e 23 171
e 23 175
e 23 190
e 23 193
e 23 197
e 23 199
e 24 25
e 24 30
e 24 32
e 24 35
e 24 36
e 24 42
e 24 44
e 24 48
e 24 49
e 24 54
e 24 57
e 24 60
e 24 64
e 24 65
e 24 68
e 24 69
e 24 76
e 24 92
e 24 94
e 24 95
e 24 100
e 24 103
e 24 104
e 24 111
e 24 114
e 24 115
e 24 132
e 24 139
e 24 142
e 24 149
e 24 153
e 24 159
e 24 160
e 24 165
e 24 167
e 24 169
e 24 177
e 24 191
e 24 192
e 24 197
e 25 33
e 25 49
e 25 50
e 25 56
e 25 64
e 25 74
e 25 89
e 25 92
e 25 93
e 25 95
e 25 97
e 25 99
e 25 100
e 25 104
e 25 110
e 25 119
e 25 127
e 25 140
e 25 142
e 25 143
e 25 148
e 25 153
e 25 165
e 25 166
e 25 167
e 25 172
e 25 174
e 25 177
e 25 179
e 25 180
e 25 185
e 25 195
e 26 28
e 26 42
e 26 46
e 26 54
e 26 56
e 26 62
e 26 64
e 26 73
e 26 74
e 26 81
e 26 84
e 26 87
e 26 101
e 26 103
e 26 104
e 26 105
e 26 115
e 26 117
e 26 122
e 26 123
e 26 125
e 26 127
e 26 129
e 26 130
e 26 134
e 26 136
e 26 137
e 26 147
e 26 148
e 26 156
e 26 168
e 26 169
e 26 180
e 26 182
e 26 185
e 26 187
e 26 190
e 26 191
e 26 195
e 26 197
e 27 29
e 27 37
e 27 43
e 27 47
e 27 51
e 27 55
e 27 56
e 27 72
e 27 81
e 27 85
e 27 95
e 27 102
e 27 111
e 27 113
e 27 114
e 27 115
e 27 118
e 27 120
e 27 122
e 27 128
e 27 130
e 27 137
e 27 153
e 27 155
e 27 158
e 27 166
e 27 170
e 27 179
e 27 181
e 27 185
e 27 192
e 27 194
e 27 197
e 27 198
e 28 33
e 28 43
e 28 49
e 28 50
e 28 57
e 28 58
e 28 64
e 28 73
e 28 78
e 28 80
e 28 83
e 28 92
e 28 96
e 28 99
e 28 100
e 28 107
e 28 111
e 28 113
e 28 120
e 28 125
e 28 127
e 28 139
e 28 143
e 28 145
e 28 148
e 28 149
e 28 154
e 28 179
e 28 188
e 29 33
e 29 39
e 29 50
e 29 54
e 29 60
e 29 68
e 29 69
e 29 71
e 29 78
e 29 86
e 29 98
e 29 103
e 29 105
e 29 114
e 29 119
e 29 124
e 29 125
e 29 130
e 29 136
e 29 137
e 29 160
e 29 164
e 29 173
e 29 174
e 29 176
e 29 178
e 29 181
e 29 183
e 29 190
e 29 199
e 30 34
e 30 39
e 30 44
e 30 51
e 30 55
e 30 61
e 30 66
e 30 71
e 30 81
e 30 84
e 30 85
e 30 88
e 30 90
e 30 92
e 30 93
e 30 96
e 30 103
e 30 107
e 30 118
e 30 119
e 30 121
e 30 122
e 30 126
e 30 127
e 30 151
e 30 157
e 30 159
e 30 160
e 30 173
e 30 189
e 30 196
e 30 199
e 31 35
e 31 39
e 31 41
e 31 43
e 31 44
e 31 45
e 31 48
e 31 55
e 31 61
e 31 65
e 31 67
e 31 74
e 31 81
e 31 82
e 31 93
e 31 96
e 31 99
e 31 105
e 31 113
e 31 121
e 31 123
e 31 124
e 31 135
e 31 150
e 31 151
e 31 153
e 31 157
e 31 161
e 31 181
e 31 185
e 31 190
e 31 191
e 31 198
e 32 39
e 32 44
e 32 55
e 32 56
e 32 57
e 32 69
e 32 75
e 32 87
e 32 90
e 32 95
e 32 97
e 32 102
e 32 106
e 32 120
e 32 122
e 32 126
e 32 127
e 32 128
e 32 129
e 32 131
e 32 134
e 32 144
e 32 146
e 32 149
e 32 152
e 32 153
e 32 154
e 32 157
e 32 161
e 32 164
e 32 167
e 32 172
e 32 182
e 32 184
e 32 187
e 32 188
e 32 190
e 32 199
e 33 46
e 33 49
e 33 50
e 33 62
e 33 64
e 33 76
e 33 82
e 33 83
e 33 87
e 33 88
e 33 90
e 33 92
e 33 94
e 33 108
e 33 115
e 33 119
e 33 120
e 33 121
e 33 123
e 33 125
e 33 127
e 33 128
e 33 144
e 33 147
e 33 151
e 33 153
e 33 154
e 33 163
e 33 168
e 33 171
e 33 175
e 33 176
e 33 182
e 33 183
e 33 187
e 33 189
e 33 190
e 34 37
e 34 39
e 34 46
e 34 50
e 34 71
e 34 76
e 34 82
e 34 83
e 34 89
e 34 90
e 34 98
e 34 99
e 34 104
e 34 106
e 34 117
e 34 131
e 34 139
e 34 147
e 34 152
e 34 156
e 34 159
e 34 162
e 34 165
e 34 169
e 34 174
e 34 175
e 34 177
e 34 180
e 34 183
e 34 186
e 34 188
e 34 195
e 35 38
e 35 39
e 35 42
e 35 46
e 35 47
e 35 49
e 35 54
e 35 61
e 35 62
e 35 65
e 35 66
e 35 70
e 35 71
e 35 74
e 35 78
e 35 85
e 35 86
e 35 91
e 35 93
e 35 94
e 35 96
e 35 99
e 35 100
e 35 108
e 35 119
e 35 121
e 35 122
e 35 123
e 35 124
e 35 128
e 35 129
e 35 135
e 35 140
e 35 145
e 35 151
e 35 153
e 35 168
e 35 169
e 35 172
e 35 179
e 35 183
e 35 188
e 35 193
e 35 197
e 36 37
e 36 40
e 36 44
e 36 71
e 36 81
e 36 83
e 36 85
e 36 87
e 36 89
e 36 100
e 36 101
e 36 109
e 36 110
e 36 112
e 36 116
e 36 127
e 36 128
e 36 136
e 36 137
e 36 138
e 36 139
e 36 153
e 36 155
e 36 163
e 36 165
e 36 171
e 36 174
e 36 176
e 36 177
e 36 181
e 36 186
e 36 193
e 37 38
e 37 39
e 37 40
e 37 49
e 37 51
e 37 52
e 37 54
e 37 56
e 37 58
e 37 63
e 37 84
e 37 85
e 37 86
e 37 89
e 37 93
e 37 96
e 37 104
e 37 105
e 37 106
e 37 107
e 37 117
e 37 124
e 37 130
e 37 133
e 37 138
e 37 141
e 37 155
e 37 159
e 37 164
e 37 165
e 37 168
e 37 170
e 37 175
e 37 182
e 37 190
e 37 191
e 38 39
e 38 41
e 38 43
e 38 45
e 38 48
e 38 52
e 38 53
e 38 62
e 38 69
e 38 71
e 38 73
e 38 76
e 38 82
e 38 86
e 38 93
e 38 109
e 38 114
e 38 116
e 38 121
e 38 127
e 38 130
e 38 132
e 38 159
e 38 170
e 38 184
e 38 186
e 38 188
e 38 195
e 39 42
e 39 46
e 39 50
e 39 54
e 39 60
e 39 74
e 39 76
e 39 78
e 39 81
e 39 82
e 39 90
e 39 98
e 39 99
e 39 109
e 39 110
e 39 112
e 39 114
e 39 119
e 39 136
e 39 137
e 39 140
e 39 144
e 39 145
e 39 146
e 39 155
e 39 163
e 39 171
e 39 173
e 39 177
e 39 178
e 39 181
e 39 183
e 39 185
e 39 188
e 39 191
e 39 193
e 39 194
e 39 195
e 39 200
e 40 42
e 40 45
e 40 47
e 40 48
e 40 61
e 40 66
e 40 72
e 40 84
e 40 85
e 40 91
e 40 106
e 40 118
e 40 126
e 40 138
e 40 151
e 40 152
e 40 154
e 40 157
e 40 162
e 40 173
e 40 176
e 40 180
e 40 182
e 40 192
e 41 44
e 41 45
e 41 50
e 41 51
e 41 58
e 41 59
e 41 60
e 41 71
e 41 73
e 41 74
e 41 75
e 41 76
e 41 78
e 41 83
e 41 93
e 41 111
e 41 112
e 41 115
e 41 145
e 41 163
e 41 165
e 41 167
e 41 170
e 41 171
e 41 172
e 41 174
e 41 184
e 41 187
e 41 198
e 42 44
e 42 47
e 42 49
e 42 51
e 42 52
e 42 53
e 42 55
e 42 59
e 42 60
e 42 61
e 42 62
e 42 63
e 42 72
e 42 79
e 42 89
e 42 90
e 42 93
e 42 98
e 42 104
e 42 110
e 42 112
e 42 122
e 42 126
e 42 134
e 42 147
e 42 149
e 42 150
e 42 159
e 42 163
e 42 165
e 42 166
e 42 169
e 42 176
e 42 177
e 42 179
e 42 184
e 42 186
e 42 189
e 42 191
e 42 195
e 42 198
e 42 199
e 43 47
e 43 63
e 43 70
e 43 83
e 43 92
e 43 93
e 43 96
e 43 102
e 43 103
e 43 104
e 43 106
e 43 108
e 43 111
e 43 112
e 43 116
e 43 117
e 43 120
e 43 123
e 43 127
e 43 128
e 43 132
e 43 134
e 43 138
e 43 142
e 43 145
e 43 152
e 43 154
e 43 155
e 43 156
e 43 161
e 43 175
e 43 179
e 43 180
e 43 181
e 43 182
e 43 198
e 44 45
e 44 54
e 44 68
e 44 70
e 44 72
e 44 87
e 44 97
e 44 99
e 44 107
e 44 109
e 44 111
e 44 112
e 44 121
e 44 123
e 44 127
e 44 140
e 44 143
e 44 149
e 44 170
e 44 171
e 44 180
e 44 184
e 44 185
e 44 190
e 44 199
e 45 49
e 45 52
e 45 54
e 45 55
e 45 58
e 45 62
e 45 65
e 45 68
e 45 69
e 45 72
e 45 73
e 45 79
e 45 81
e 45 85
e 45 86
e 45 89
e 45 92
e 45 94
e 45 102
e 45 112
e 45 120
e 45 128
e 45 132
e 45 138
e 45 153
e 45 156
e 45 157
e 45 162
e 45 167
e 45 168
e 45 173
e 45 175
e 45 186
e 45 188
e 45 200
e 46 51
e 46 55
e 46 56
e 46 59
e 46 67
e 46 70
e 46 71
e 46 88
e 46 95
e 46 96
e 46 97
e 46 101
e 46 109
e 46 113
e 46 114
e 46 120
e 46 121
e 46 136
e 46 138
e 46 143
e 46 147
e 46 164
e 46 172
e 46 174
e 46 184
e 46 185
e 46 187
e 46 196
e 47 51
e 47 60
e 47 69
e 47 74
e 47 75
e 47 80
e 47 83
e 47 85
e 47 89
e 47 93
e 47 105
e 47 109
e 47 117
e 47 122
e 47 124
e 47 129
e 47 135
e 47 140
e 47 144
e 47 152
e 47 158
e 47 164
e 47 181
e 47 188
e 47 190
e 47 194
e 47 199
e 47 200
e 48 52
e 48 58
e 48 62
e 48 65
e 48 79
e 48 83
e 48 87
e 48 102
e 48 106
e 48 112
e 48 114
e 48 117
e 48 118
e 48 119
e 48 124
e 48 125
e 48 139
e 48 140
e 48 141
e 48 144
e 48 147
e 48 155
e 48 161
e 48 180
e 48 181
e 48 182
e 48 187
e 48 193
e 48 199
e 48 200
e 49 59
e 49 68
e 49 70
e 49 73
e 49 87
e 49 89
e 49 91
e 49 99
e 49 101
e 49 105
e 49 110
e 49 114
e 49 116
e 49 117
e 49 118
e 49 127
e 49 128
e 49 130
e 49 134
e 49 140
e 49 141
e 49 144
e 49 146
e 49 168
e 49 173
e 49 175
e 49 178
e 49 183
e 49 193
e 49 198
e 50 56
e 50 59
e 50 64
e 50 66
e 50 78
e 50 81
e 50 82
e 50 85
e 50 90
e 50 91
e 50 93
e 50 97
e 50 98
e 50 100
e 50 102
e 50 105
e 50 107
e 50 113
e 50 114
e 50 115
e 50 119
e 50 131
e 50 136
e 50 138
e 50 148
e 50 152
e 50 157
e 50 158
e 50 170
e 50 172
e 50 178
e 50 184
e 50 190
e 50 195
e 50 199
e 51 57
e 51 69
e 51 76
e 51 85
e 51 93
e 51 94
e 51 98
e 51 101
e 51 109
e 51 115
e 51 134
e 51 141
e 51 146
e 51 155
e 51 159
e 51 160
e 51 161
e 51 165
e 51 167
e 51 170
e 51 172
e 51 183
e 51 186
e 51 188
e 52 58
e 52 65
e 52 66
e 52 68
e 52 70
e 52 72
e 52 79
e 52 80
e 52 86
e 52 113
e 52 115
e 52 118
e 52 127
e 52 146
e 52 147
e 52 151
e 52 162
e 52 165
e 52 172
e 52 178
e 52 182
e 52 188
e 52 190
e 52 191
e 53 59
e 53 64
e 53 76
e 53 83
e 53 84
e 53 88
e 53 94
e 53 103
e 53 113
e 53 114
e 53 116
e 53 119
e 53 126
e 53 128
e 53 136
e 53 137
e 53 141
e 53 143
e 53 150
e 53 153
e 53 157
e 53 164
e 53 168
e 53 171
e 53 182
e 53 185
e 53 190
e 54 55
e 54 65
e 54 76
e 54 80
e 54 87
e 54 94
e 54 95
e 54 113
e 54 116
e 54 119
e 54 120
e 54 123
e 54 133
e 54 136
e 54 147
e 54 153
e 54 155
e 54 159
e 54 161
e 54 168
e 54 169
e 54 176
e 54 177
e 54 186
e 54 187
e 54 189
e 54 191
e 54 195
e 54 196
e 55 58
e 55 67
e 55 73
e 55 74
e 55 82
e 55 84
e 55 87
e 55 100
e 55 102
e 55 103
e 55 108
e 55 110
e 55 117
e 55 119
e 55 124
e 55 125
e 55 137
e 55 141
e 55 146
e 55 149
e 55 160
e 55 166
e 55 167
e 55 172
e 55 178
e 55 183
e 55 185
e 55 194
e 55 195
e 55 198
e 56 69
e 56 73
e 56 74
e 56 76
e 56 81
e 56 86
e 56 88
e 56 90
e 56 91
e 56 92
e 56 98
e 56 102
e 56 109
e 56 110
e 56 121
e 56 122
e 56 125
e 56 131
e 56 135
e 56 137
e 56 138
e 56 139
e 56 143
e 56 147
e 56 151
e 56 157
e 56 163
e 56 169
e 56 172
e 56 174
e 56 175
e 56 176
e 56 177
e 56 180
e 56 191
e 56 195
e 56 196
e 56 200
e 57 59
e 57 60
e 57 83
e 57 88
e 57 90
e 57 98
e 57 102
e 57 103
e 57 105
e 57 112
e 57 115
e 57 118
e 57 122
e 57 126
e 57 133
e 57 138
e 57 141
e 57 143
e 57 145
e 57 148
e 57 150
e 57 152
e 57 155
e 57 157
e 57 167
e 57 169
e 57 181
e 57 182
e 57 185
e 57 187
e 57 193
e 57 200
e 58 59
e 58 67
e 58 93
e 58 101
e 58 102
e 58 105
e 58 106
e 58 109
e 58 119
e 58 122
e 58 124
e 58 126
e 58 130
e 58 135
e 58 139
e 58 141
e 58 143
e 58 145
e 58 149
e 58 155
e 58 156
e 58 162
e 58 163
e 58 164
e 58 165
e 58 166
e 58 167
e 58 168
e 58 171
e 58 175
e 58 176
e 58 177
e 58 182
e 58 184
e 58 188
e 58 193
e 58 194
e 58 199
e 59 64
e 59 67
e 59 70
e 59 74
e 59 75
e 59 77
e 59 103
e 59 104
e 59 107
e 59 108
e 59 109
e 59 117
e 59 121
e 59 122
e 59 127
e 59 132
e 59 138
e 59 140
e 59 141
e 59 156
e 59 159
e 59 166
e 59 168
e 59 176
e 59 177
e 59 185
e 59 192
e 59 197
e 60 72
e 60 73
e 60 78
e 60 82
e 60 83
e 60 86
e 60 91
e 60 92
e 60 106
e 60 107
e 60 117
e 60 119
e 60 136
e 60 138
e 60 144
e 60 149
e 60 150
e 60 153
e 60 165
e 60 168
e 60 174
e 60 178
e 60 179
e 60 182
e 60 188
e 60 191
e 60 197
e 60 199
e 61 67
e 61 70
e 61 74
e 61 88
e 61 99
e 61 101
e 61 111
e 61 115
e 61 119
e 61 120
e 61 136
e 61 138
e 61 144
e 61 151
e 61 156
e 61 158
e 61 161
e 61 172
e 61 174
e 61 177
e 61 178
e 61 182
e 61 184
e 61 191
e 61 193
e 61 196
e 62 64
e 62 72
e 62 77
e 62 78
e 62 85
e 62 88
e 62 93
e 62 94
e 62 100
e 62 103
e 62 105
e 62 109
e 62 113
e 62 114
e 62 116
e 62 121
e 62 126
e 62 127
e 62 129
e 62 132
e 62 134
e 62 141
e 62 145
e 62 147
e 62 157
e 62 168
e 62 176
e 62 177
e 62 183
e 62 184
e 62 185
e 62 196
e 62 199
e 62 200
e 63 73
e 63 74
e 63 76
e 63 101
e 63 103
e 63 104
e 63 107
e 63 112
e 63 116
e 63 119
e 63 121
e 63 129
e 63 131
e 63 137
e 63 142
e 63 156
e 63 171
e 63 172
e 63 174
e 63 190
e 63 194
e 63 195
e 63 196
e 63 197
e 64 68
e 64 69
e 64 70
e 64 71
e 64 80
e 64 85
e 64 87
e 64 91
e 64 95
e 64 101
e 64 103
e 64 104
e 64 115
e 64 116
e 64 118
e 64 120
e 64 125
e 64 127
e 64 137
e 64 138
e 64 139
e 64 143
e 64 166
e 64 167
e 64 169
e 64 173
e 64 182
e 64 183
e 64 187
e 64 190
e 64 193
e 65 75
e 65 77
e 65 80
e 65 82
e 65 83
e 65 87
e 65 91
e 65 95
e 65 96
e 65 98
e 65 102
e 65 104
e 65 110
e 65 116
e 65 117
e 65 118
e 65 127
e 65 131
e 65 136
e 65 153
e 65 154
e 65 157
e 65 160
e 65 165
e 65 168
e 65 170
e 65 183
e 65 184
e 65 185
e 65 186
e 65 192
e 65 193
e 65 198
e 65 200
e 66 69
e 66 88
e 66 94
e 66 101
e 66 105
e 66 106
e 66 114
e 66 124
e 66 137
e 66 143
e 66 153
e 66 155
e 66 158
e 66 166
e 66 171
e 66 173
e 66 178
e 66 181
e 66 183
e 66 193
e 66 194
e 66 196
e 66 198
e 66 199
e 67 68
e 67 69
e 67 85
e 67 90
e 67 99
e 67 103
e 67 113
e 67 115
e 67 118
e 67 124
e 67 127
e 67 135
e 67 136
e 67 138
e 67 139
e 67 141
e 67 151
e 67 154
e 67 157
e 67 161
e 67 162
e 67 163
e 67 170
e 67 171
e 67 175
e 67 182
e 67 188
e 67 192
e 67 196
e 68 89
e 68 100
e 68 102
e 68 106
e 68 112
e 68 115
e 68 117
e 68 132
e 68 133
e 68 137
e 68 143
e 68 144
e 68 152
e 68 154
e 68 160
e 68 162
e 68 178
e 68 185
e 69 72
e 69 73
e 69 80
e 69 81
e 69 87
e 69 94
e 69 101
e 69 105
e 69 116
e 69 117
e 69 123
e 69 130
e 69 132
e 69 140
e 69 150
e 69 153
e 69 156
e 69 177
e 69 178
e 69 182
e 69 194
e 69 196
e 69 200
e 70 81
e 70 82
e 70 84
e 70 92
e 70 94
e 70 95
e 70 98
e 70 111
e 70 115
e 70 117
e 70 121
e 70 124
e 70 130
e 70 134
e 70 138
e 70 140
e 70 151
e 70 163
e 70 164
e 70 168
e 70 170
e 70 179
e 70 183
e 70 184
e 70 188
e 70 196
e 71 73
e 71 78
e 71 85
e 71 88
e 71 91
e 71 93
e 71 97
e 71 108
e 71 112
e 71 114
e 71 117
e 71 128
e 71 133
e 71 134
e 71 142
e 71 143
e 71 147
e 71 159
e 71 163
e 71 165
e 71 167
e 71 170
e 71 171
e 71 175
e 71 194
e 71 196
e 71 199
e 72 74
e 72 80
e 72 100
e 72 104
e 72 106
e 72 113
e 72 118
e 72 136
e 72 157
e 72 165
e 72 168
e 72 170
e 72 173
e 72 174
e 72 175
e 72 177
e 72 198
e 72 199
e 73 76
e 73 89
e 73 91
e 73 102
e 73 106
e 73 107
e 73 108
e 73 112
e 73 116
e 73 117
e 73 123
e 73 126
e 73 131
e 73 140
e 73 146
e 73 150
e 73 152
e 73 156
e 73 161
e 73 167
e 73 172
e 73 176
e 73 177
e 73 178
e 73 188
e 73 190
e 73 193
e 73 196
e 73 197
e 73 200
e 74 85
e 74 90
e 74 92
e 74 96
e 74 102
e 74 106
e 74 113
e 74 117
e 74 121
e 74 124
e 74 139
e 74 142
e 74 154
e 74 155
e 74 158
e 74 160
e 74 169
e 74 170
e 74 175
e 74 179
e 74 184
e 74 188
e 74 193
e 74 195
e 75 77
e 75 80
e 75 83
e 75 87
e 75 92
e 75 101
e 75 105
e 75 118
e 75 125
e 75 133
e 75 136
e 75 141
e 75 159
e 75 166
e 75 169
e 75 170
e 75 180
e 75 192
e 75 196
e 75 197
e 75 198
e 76 85
e 76 90
e 76 96
e 76 99
e 76 101
e 76 102
e 76 106
e 76 115
e 76 117
e 76 125
e 76 132
e 76 133
e 76 135
e 76 140
e 76 148
e 76 150
e 76 156
e 76 163
e 76 166
e 76 169
e 76 170
e 76 172
e 76 175
e 76 190
e 76 200
e 77 81
e 77 89
e 77 91
e 77 99
e 77 103
e 77 106
e 77 116
e 77 122
e 77 137
e 77 141
e 77 144
e 77 145
e 77 146
e 77 153
e 77 156
e 77 158
e 77 172
e 77 177
e 77 180
e 77 186
e 77 193
e 77 196
e 78 79
e 78 81
e 78 89
e 78 91
e 78 92
e 78 94
e 78 96
e 78 102
e 78 104
e 78 110
e 78 118
e 78 129
e 78 131
e 78 139
e 78 140
e 78 142
e 78 146
e 78 150
e 78 159
e 78 162
e 78 163
e 78 185
e 78 188
e 78 190
e 78 191
e 78 198
e 79 81
e 79 85
e 79 93
e 79 95
e 79 101
e 79 102
e 79 103
e 79 109
e 79 117
e 79 118
e 79 128
e 79 132
e 79 140
e 79 144
e 79 145
e 79 158
e 79 164
e 79 167
e 79 168
e 79 169
e 79 172
e 79 173
e 79 177
e 79 189
e 79 190
e 79 194
e 79 200
e 80 93
e 80 95
e 80 103
e 80 106
e 80 116
e 80 120
e 80 122
e 80 123
e 80 125
e 80 133
e 80 137
e 80 141
e 80 147
e 80 151
e 80 153
e 80 156
e 80 178
e 80 182
e 80 189
e 80 193
e 80 195
e 81 85
e 81 91
e 81 99
e 81 103
e 81 104
e 81 118
e 81 119
e 81 122
e 81 124
e 81 127
e 81 136
e 81 142
e 81 148
e 81 150
e 81 152
e 81 167
e 81 177
e 81 188
e 81 191
e 81 196
e 81 197
e 81 200
e 82 92
e 82 97
e 82 102
e 82 106
e 82 108
e 82 112
e 82 117
e 82 126
e 82 129
e 82 136
e 82 146
e 82 149
e 82 152
e 82 158
e 82 161
e 82 168
e 82 169
e 82 170
e 82 180
e 82 181
e 82 183
e 82 185
e 82 188
e 82 200
e 83 84
e 83 88
e 83 92
e 83 99
e 83 109
e 83 121
e 83 123
e 83 126
e 83 129
e 83 133
e 83 136
e 83 139
e 83 141
e 83 143
e 83 145
e 83 146
e 83 148
e 83 149
e 83 150
e 83 151
e 83 154
e 83 157
e 83 162
e 83 163
e 83 164
e 83 166
e 83 172
e 83 177
e 83 180
e 83 183
e 83 188
e 83 191
e 83 200
e 84 99
e 84 100
e 84 101
e 84 103
e 84 112
e 84 115
e 84 141
e 84 153
e 84 154
e 84 157
e 84 160
e 84 163
e 84 168
e 84 171
e 84 172
e 84 174
e 84 175
e 84 180
e 84 186
e 84 190
e 84 193
e 84 197
e 85 87
e 85 98
e 85 109
e 85 115
e 85 118
e 85 120
e 85 124
e 85 127
e 85 129
e 85 137
e 85 139
e 85 143
e 85 146
e 85 147
e 85 148
e 85 150
e 85 156
e 85 160
e 85 168
e 85 170
e 85 171
e 85 174
e 85 193
e 85 194
e 86 94
e 86 95
e 86 97
e 86 99
e 86 100
e 86 102
e 86 103
e 86 104
e 86 117
e 86 120
e 86 124
e 86 126
e 86 129
e 86 132
e 86 138
e 86 139
e 86 144
e 86 146
e 86 153
e 86 161
e 86 163
e 86 165
e 86 166
e 86 167
e 86 168
e 86 180
e 86 184
e 86 191
e 86 197
e 86 200
e 87 92
e 87 96
e 87 97
e 87 99
e 87 100
e 87 101
e 87 108
e 87 110
e 87 112
e 87 120
e 87 126
e 87 129
e 87 142
e 87 143
e 87 160
e 87 170
e 87 171
e 87 177
e 87 178
e 87 180
e 87 186
e 87 194
e 87 197
e 88 91
e 88 105
e 88 108
e 88 126
e 88 133
e 88 148
e 88 149
e 88 156
e 88 161
e 88 164
e 88 167
e 88 171
e 88 176
e 88 186
e 88 187
e 88 189
e 88 199
e 89 92
e 89 93
e 89 94
e 89 102
e 89 109
e 89 110
e 89 115
e 89 122
e 89 124
e 89 126
e 89 127
e 89 128
e 89 132
e 89 134
e 89 135
e 89 138
e 89 150
e 89 163
e 89 165
e 89 167
e 89 168
e 89 178
e 89 179
e 89 181
e 89 183
e 89 184
e 89 189
e 89 192
e 90 93
e 90 98
e 90 103
e 90 105
e 90 108
e 90 110
e 90 117
e 90 120
e 90 137
e 90 141
e 90 148
e 90 153
e 90 156
e 90 160
e 90 161
e 90 164
e 90 166
e 90 170
e 90 171
e 90 177
e 90 180
e 90 181
e 91 101
e 91 103
e 91 106
e 91 113
e 91 117
e 91 121
e 91 124
e 91 135
e 91 137
e 91 138
e 91 140
e 91 147
e 91 153
e 91 154
e 91 155
e 91 158
e 91 162
e 91 165
e 91 166
e 91 170
e 91 173
e 91 176
e 91 180
e 91 184
e 91 186
e 91 194
e 91 197
e 91 198
e 92 99
e 92 101
e 92 110
e 92 111
e 92 112
e 92 133
e 92 141
e 92 142
e 92 149
e 92 150
e 92 152
e 92 153
e 92 154
e 92 164
e 92 168
e 92 170
e 92 178
e 92 187
e 92 191
e 92 192
e 92 194
e 93 94
e 93 95
e 93 97
e 93 99
e 93 103
e 93 104
e 93 111
e 93 115
e 93 117
e 93 121
e 93 122
e 93 139
e 93 140
e 93 156
e 93 157
e 93 158
e 93 159
e 93 167
e 93 169
e 93 178
e 93 180
e 93 181
e 93 186
e 93 192
e 93 194
e 93 200
e 94 95
e 94 98
e 94 102
e 94 104
e 94 105
e 94 110
e 94 120
e 94 121
e 94 124
e 94 131
e 94 136
e 94 144
e 94 147
e 94 150
e 94 158
e 94 159
e 94 170
e 94 172
e 94 177
e 94 179
e 94 184
e 94 185
e 94 187
e 94 196
e 95 108
e 95 111
e 95 113
e 95 126
e 95 129
e 95 130
e 95 131
e 95 137
e 95 149
e 95 151
e 95 156
e 95 157
e 95 160
e 95 163
e 95 166
e 95 169
e 95 173
e 95 176
e 95 181
e 95 190
e 95 193
e 96 102
e 96 104
e 96 108
e 96 118
e 96 119
e 96 125
e 96 129
e 96 133
e 96 134
e 96 138
e 96 140
e 96 141
e 96 152
e 96 153
e 96 156
e 96 160
e 96 161
e 96 165
e 96 170
e 96 186
e 96 190
e 96 196
e 97 99
e 97 105
e 97 114
e 97 117
e 97 119
e 97 123
e 97 130
e 97 138
e 97 143
e 97 146
e 97 155
e 97 156
e 97 159
e 97 176
e 97 182
e 97 197
e 98 103
e 98 104
e 98 108
e 98 111
e 98 115
e 98 116
e 98 125
e 98 126
e 98 129
e 98 139
e 98 143
e 98 160
e 98 168
e 98 170
e 98 172
e 98 177
e 98 183
e 98 188
e 98 191
e 98 197
e 99 104
e 99 105
e 99 122
e 99 125
e 99 134
e 99 136
e 99 141
e 99 143
e 99 145
e 99 157
e 99 164
e 99 165
e 99 172
e 99 179
e 99 185
e 100 104
e 100 105
e 100 112
e 100 115
e 100 118
e 100 119
e 100 122
e 100 128
e 100 130
e 100 133
e 100 152
e 100 155
e 100 160
e 100 163
e 100 166
e 100 171
e 100 172
e 100 176
e 100 188
e 100 196
e 101 102
e 101 103
e 101 113
e 101 117
e 101 131
e 101 132
e 101 142
e 101 145
e 101 149
e 101 160
e 101 161
e 101 166
e 101 168
e 101 175
e 101 179
e 101 184
e 101 185
e 101 187
e 101 197
e 102 103
e 102 108
e 102 109
e 102 112
e 102 116
e 102 121
e 102 126
e 102 127
e 102 134
e 102 140
e 102 144
e 102 148
e 102 149
e 102 153
e 102 163
e 102 172
e 102 177
e 102 178
e 102 179
e 102 180
e 102 181
e 102 191
e 102 192
e 102 197
e 102 198
e 103 108
e 103 109
e 103 111
e 103 113
e 103 119
e 103 136
e 103 140
e 103 142
e 103 143
e 103 145
e 103 147
e 103 157
e 103 160
e 103 164
e 103 166
e 103 169
e 103 173
e 103 174
e 103 182
e 103 193
e 103 194
e 103 195
e 103 196
e 103 197
e 103 198
e 103 200
e 104 106
e 104 118
e 104 121
e 104 144
e 104 146
e 104 147
e 104 156
e 104 164
e 104 167
e 104 182
e 104 195
e 104 197
e 105 106
e 105 110
e 105 112
e 105 115
e 105 119
e 105 121
e 105 126
e 105 130
e 105 135
e 105 137
e 105 139
e 105 140
e 105 141
e 105 143
e 105 148
e 105 153
e 105 163
e 105 172
e 105 175
e 105 179
e 105 180
e 105 181
e 105 191
e 105 196
e 106 108
e 106 110
e 106 115
e 106 116
e 106 117
e 106 118
e 106 121
e 106 132
e 106 144
e 106 147
e 106 151
e 106 155
e 106 163
e 106 165
e 106 166
e 106 168
e 106 171
e 106 172
e 106 173
e 106 197
e 107 108
e 107 111
e 107 116
e 107 119
e 107 120
e 107 123
e 107 125
e 107 126
e 107 129
e 107 131
e 107 136
e 107 143
e 107 146
e 107 152
e 107 155
e 107 162
e 107 163
e 107 168
e 107 173
e 107 180
e 107 181
e 107 182
e 107 197
e 107 200
e 108 110
e 108 115
e 108 133
e 108 162
e 108 164
e 108 167
e 108 169
e 108 180
e 108 182
e 108 185
e 108 188
e 108 190
e 108 192
e 108 193
e 109 113
e 109 122
e 109 127
e 109 132
e 109 136
e 109 144
e 109 148
e 109 154
e 109 156
e 109 175
e 109 176
e 109 183
e 109 185
e 109 192
e 109 196
e 109 197
e 109 200
e 110 111
e 110 113
e 110 115
e 110 116
e 110 117
e 110 119
e 110 125
e 110 135
e 110 136
e 110 147
e 110 148
e 110 152
e 110 160
e 110 164
e 110 165
e 110 169
e 110 172
e 110 176
e 110 177
e 110 186
e 110 192
e 110 195
e 110 196
e 110 198
e 111 115
e 111 119
e 111 129
e 111 134
e 111 136
e 111 139
e 111 140
e 111 146
e 111 147
e 111 156
e 111 159
e 111 181
e 111 188
e 111 192
e 111 198
e 111 199
e 112 114
e 112 133
e 112 135
e 112 139
e 112 141
e 112 148
e 112 149
e 112 151
e 112 156
e 112 174
e 112 180
e 112 188
e 112 195
e 112 197
e 112 200
e 113 116
e 113 117
e 113 120
e 113 128
e 113 129
e 113 132
e 113 133
e 113 136
e 113 143
e 113 145
e 113 146
e 113 147
e 113 149
e 113 151
e 113 153
e 113 154
e 113 165
e 113 171
e 113 181
e 113 192
e 113 198
e 113 200
e 114 115
e 114 120
e 114 125
e 114 126
e 114 127
e 114 131
e 114 145
e 114 147
e 114 161
e 114 165
e 114 172
e 114 173
e 114 178
e 114 186
e 114 192
e 114 194
e 115 120
e 115 123
e 115 131
e 115 134
e 115 135
e 115 141
e 115 142
e 115 144
e 115 152
e 115 154
e 115 158
e 115 165
e 115 166
e 115 169
e 115 170
e 115 171
e 115 187
e 115 188
e 115 190
e 115 191
e 115 197
e 115 198
e 116 118
e 116 122
e 116 129
e 116 132
e 116 137
e 116 140
e 116 143
e 116 148
e 116 150
e 116 158
e 116 168
e 116 174
e 116 182
e 117 123
e 117 127
e 117 132
e 117 133
e 117 143
e 117 146
e 117 150
e 117 152
e 117 166
e 117 184
e 118 140
e 118 141
e 118 149
e 118 151
e 118 155
e 118 166
e 118 175
e 118 180
e 118 181
e 118 182
e 118 183
e 119 120
e 119 121
e 119 128
e 119 134
e 119 138
e 119 139
e 119 140
e 119 142
e 119 143
e 119 154
e 119 182
e 119 190
e 119 199
e 120 132
e 120 147
e 120 151
e 120 163
e 120 178
e 120 182
e 120 184
e 120 187
e 120 191
e 120 192
e 120 197
e 121 136
e 121 156
e 121 158
e 121 163
e 121 164
e 121 170
e 121 171
e 121 174
e 121 177
e 121 182
e 121 189
e 121 193
e 121 196
e 121 197
e 122 123
e 122 128
e 122 131
e 122 137
e 122 141
e 122 148
e 122 154
e 122 162
e 122 168
e 122 174
e 122 181
e 122 189
e 122 200
e 123 124
e 123 126
e 123 130
e 123 134
e 123 135
e 123 139
e 123 146
e 123 152
e 123 154
e 123 156
e 123 158
e 123 159
e 123 180
e 123 186
e 124 132
e 124 133
e 124 138
e 124 139
e 124 142
e 124 155
e 124 157
e 124 158
e 124 166
e 124 170
e 124 174
e 124 175
e 124 181
e 124 185
e 124 197
e 125 128
e 125 131
e 125 134
e 125 138
e 125 148
e 125 159
e 125 161
e 125 164
e 125 165
e 125 172
e 125 181
e 125 185
e 125 186
e 125 197
e 126 131
e 126 132
e 126 135
e 126 137
e 126 140
e 126 143
e 126 144
e 126 152
e 126 158
e 126 160
e 126 162
e 126 163
e 126 173
e 126 178
e 126 182
e 126 186
e 126 187
e 126 189
e 127 129
e 127 140
e 127 142
e 127 146
e 127 149
e 127 152
e 127 156
e 127 179
e 127 182
e 127 187
e 127 195
e 128 131
e 128 133
e 128 134
e 128 136
e 128 138
e 128 144
e 128 145
e 128 148
e 128 151
e 128 174
e 128 176
e 128 178
e 128 191
e 128 192
e 128 193
e 128 194
e 128 195
e 128 199
e 129 131
e 129 132
e 129 135
e 129 140
e 129 148
e 129 149
e 129 152
e 129 159
e 129 165
e 129 172
e 129 175
e 129 177
e 129 178
e 129 181
e 129 182
e 129 186
e 129 190
e 129 192
e 130 140
e 130 145
e 130 149
e 130 162
e 130 174
e 130 180
e 130 190
e 130 194
e 130 197
e 131 135
e 131 144
e 131 145
e 131 152
e 131 153
e 131 159
e 131 160
e 131 161
e 131 166
e 131 167
e 131 172
e 131 179
e 131 181
e 131 187
e 131 188
e 131 190
e 131 198
e 132 138
e 132 143
e 132 155
e 132 161
e 132 163
e 132 170
e 132 171
e 132 176
e 132 180
e 132 183
e 132 184
e 132 185
e 133 139
e 133 140
e 133 147
e 133 155
e 133 156
e 133 157
e 133 158
e 133 160
e 133 169
e 133 177
e 133 181
e 133 189
e 133 192
e 133 193
e 133 196
e 134 136
e 134 138
e 134 139
e 134 142
e 134 143
e 134 153
e 134 157
e 134 171
e 134 173
e 134 182
e 134 188
e 134 190
e 134 193
e 134 200
e 135 137
e 135 138
e 135 144
e 135 151
e 135 160
e 135 163
e 135 169
e 135 170
e 135 188
e 135 192
e 135 195
e 135 200
e 136 137
e 136 141
e 136 149
e 136 157
e 136 162
e 136 170
e 136 173
e 136 178
e 136 181
e 136 182
e 136 187
e 136 200
e 137 149
e 137 153
e 137 154
e 137 156
e 137 165
e 137 166
e 137 167
e 137 170
e 137 172
e 137 173
e 137 179
e 137 180
e 137 192
e 137 194
e 138 141
e 138 150
e 138 155
e 138 171
e 138 179
e 138 189
e 138 197
e 138 200
e 139 143
e 139 146
e 139 153
e 139 159
e 139 160
e 139 168
e 139 170
e 139 176
e 139 181
e 139 182
e 139 188
e 139 195
e 139 196
e 139 200
e 140 143
e 140 144
e 140 145
e 140 151
e 140 155
e 140 161
e 140 166
e 140 169
e 140 171
e 140 173
e 140 176
e 140 185
e 140 186
e 140 197
e 141 142
e 141 143
e 141 153
e 141 160
e 141 161
e 141 166
e 141 180
e 141 184
e 141 191
e 141 198
e 142 144
e 142 152
e 142 166
e 142 167
e 142 169
e 142 170
e 142 174
e 142 177
e 142 186
e 142 190
e 142 191
e 142 192
e 142 200
e 143 147
e 143 148
e 143 152
e 143 154
e 143 158
e 143 159
e 143 160
e 143 173
e 143 174
e 143 188
e 143 190
e 144 146
e 144 147
e 144 148
e 144 151
e 144 154
e 144 158
e 144 163
e 144 167
e 144 173
e 144 179
e 144 182
e 144 183
e 145 146
e 145 149
e 145 157
e 145 163
e 145 164
e 145 174
e 145 177
e 145 185
e 145 188
e 145 193
e 145 198
e 146 147
e 146 148
e 146 151
e 146 157
e 146 162
e 146 166
e 146 171
e 146 180
e 146 183
e 146 184
e 146 185
e 146 196
e 147 158
e 147 167
e 147 172
e 147 174
e 147 179
e 147 180
e 147 186
e 147 191
e 147 199
e 148 150
e 148 172
e 148 181
e 148 196
e 148 198
e 148 199
e 149 150
e 149 155
e 149 156
e 149 159
e 149 171
e 149 186
e 149 187
e 149 192
e 150 169
e 150 175
e 150 184
e 150 188
e 150 190
e 150 197
e 151 165
e 151 181
e 151 196
e 152 158
e 152 162
e 152 164
e 152 169
e 152 170
e 152 174
e 152 175
e 152 176
e 152 177
e 152 181
e 152 182
e 152 190
e 152 198
e 152 199
e 152 200
e 153 167
e 153 170
e 153 188
e 153 189
e 153 197
e 154 155
e 154 156
e 154 157
e 154 162
e 154 165
e 154 171
e 154 172
e 154 173
e 154 178
e 154 186
e 154 189
e 155 156
e 155 157
e 155 158
e 155 193
e 156 163
e 156 170
e 156 172
e 156 174
e 156 183
e 156 184
e 156 189
e 156 198
e 156 199
e 156 200
e 157 168
e 157 170
e 157 174
e 157 179
e 157 180
e 157 195
e 157 196
e 158 161
e 158 163
e 158 166
e 158 174
e 158 177
e 158 183
e 158 184
e 158 189
e 158 192
e 158 196
e 158 198
e 159 162
e 159 169
e 159 170
e 159 174
e 159 186
e 160 164
e 160 168
e 160 170
e 160 172
e 160 185
e 160 189
e 160 198
e 161 165
e 161 168
e 161 169
e 161 170
e 161 177
e 161 179
e 161 183
e 161 189
e 161 196
e 161 198
e 161 199
e 162 163
e 162 165
e 162 174
e 162 184
e 162 185
e 162 190
e 162 194
e 162 199
e 163 164
e 163 165
e 163 172
e 163 187
e 163 188
e 163 190
e 163 193
e 164 170
e 164 171
e 164 177
e 164 185
e 164 200
e 165 166
e 165 173
e 165 178
e 165 180
e 165 181
e 165 185
e 165 190
e 165 191
e 166 170
e 166 171
e 166 181
e 166 191
e 166 199
e 167 168
e 167 177
e 167 178
e 167 185
e 167 190
e 167 191
e 167 193
e 167 196
e 168 169
e 168 183
e 168 186
e 168 188
e 168 193
e 168 195
e 168 199
e 169 170
e 169 172
e 169 173
e 169 177
e 169 179
e 169 183
e 169 192
e 169 194
e 169 196
e 169 199
e 170 172
e 170 178
e 170 179
e 170 180
e 170 182
e 170 189
e 170 190
e 170 191
e 170 196
e 170 200
e 171 187
e 171 188
e 171 192
e 171 193
e 171 194
e 171 195
e 172 175
e 172 176
e 172 178
e 172 179
e 172 181
e 172 185
e 172 198
e 173 176
e 173 193
e 173 194
e 174 185
e 174 186
e 174 195
e 175 187
e 175 189
e 175 198
e 175 200
e 176 179
e 176 184
e 176 188
e 176 192
e 176 195
e 177 183
e 177 184
e 177 188
e 177 191
e 177 192
e 177 195
e 177 199
e 178 179
e 178 184
e 178 194
e 179 182
e 179 187
e 179 192
e 179 195
e 180 186
e 180 188
e 180 189
e 181 185
e 181 193
e 182 196
e 183 196
e 183 198
e 183 199
e 184 186
e 184 187
e 184 191
e 184 196
e 185 189
e 186 194
e 187 188
e 187 195
e 187 198
e 187 200
e 188 189
e 188 191
e 188 198
e 188 199
e 189 191
e 189 192
e 189 193
e 190 191
e 190 192
e 190 194
e 190 198
e 190 200
e 191 198
e 192 195
e 192 198
e 193 199
e 194 196
e 197 200
e 198 199
e 198 200
